cost: 1126.16
Route 1:           0    2   43   14   11    3    9   49    0
Route 2:           0   20    5   47   17   39    0
Route 3:           0   24   50   31    0
Route 4:           0   25    1   18    6    7   30    0
Route 5:           0   33   36   15   46   27    0
Route 6:           0   37   21   23    8   35   10   19    0
Route 7:           0   40   38    4   48   26   13   41   28    0
Route 8:           0   42   29   45   16   12    0
Route 9:           0   44   34   32   22    0
